4 
5  32 54 
6  10 30 42 55 
7  10 25 43 58 
8  13 28 43 58 
9  13 28 43 58 
10  13 28 43 58 
11  13 28 43 58 
12  13 28 43 58 
13  13 28 43 58 
14  13 28 43 58 
15  13 28 43 58 
16  13 28 43 58 
17  13 28 43 58 
18  13 28 43 58 
19  14 30 45 
20  00 15 30 45 
21  00 15 30 45 
22  00 15 29 44 59 
23  14 29 
0 
